\ LP format - for model browsing. Use MPS format to capture full model detail.
Minimize
  0 B18(0) + 0 B28(0) + 0 B38(0) + 0 B45(0) + 0 B46(0) + 0 B47(0) + 0 B48(0)
   + 0 B54(0) + 0 B55(0) + 0 B56(0) + 0 B58(0) + 0 B63(0) + 0 B64(0)
   + 0 B65(0) + 0 B68(0) + 0 B72(0) + 0 B73(0) + 0 B74(0) + 0 B75(0)
   + 0 B76(0) + 0 B77(0) + 0 B78(0) + 0 B81(0) + 0 B82(0) + 0 B83(0)
   + 0 B84(0) + 0 B85(0) + 0 B86(0) + 0 B88(0) + 0 B90(0) + 0 B91(0)
   + 0 B92(0) + 0 B93(0) + 0 B94(0) + 0 B95(0) + 0 B98(0) + I117(1)
Subject To
 c0: B0(22) + B1(12) = 1
 c1: B2(13) + B3(21) = 1
 c2: B4(14) + B5(22) = 1
 c3: B6(20) + B7(14) = 1
 c4: B8(13) + B9(19) = 1
 c5: B10(14) + B11(14) = 1
 c6: B12(22) + B13(14) = 1
 c7: B14(21) + B15(13) = 1
 c8: B16(12) + B17(22) = 1
 c9: - 1e+06 B0(22) + C99(24) <= 0
 c10: - 1e+06 B1(12) + C100(14) <= 0
 c11: - 1e+06 B2(13) + C101(14) <= 0
 c12: - 1e+06 B3(21) + C102(22) <= 0
 c13: - 1e+06 B4(14) + C103(14) <= 0
 c14: - 1e+06 B5(22) + C104(22) <= 0
 c15: - 1e+06 B6(20) + C105(22) <= 0
 c16: - 1e+06 B7(14) + C106(16) <= 0
 c17: - 1e+06 B8(13) + C107(14) <= 0
 c18: - 1e+06 B9(19) + C108(20) <= 0
 c19: - 1e+06 B10(14) + C109(14) <= 0
 c20: - 1e+06 B11(14) + C110(14) <= 0
 c21: - 1e+06 B12(22) + C111(24) <= 0
 c22: - 1e+06 B13(14) + C112(16) <= 0
 c23: - 1e+06 B14(21) + C113(22) <= 0
 c24: - 1e+06 B15(13) + C114(14) <= 0
 c25: - 1e+06 B16(12) + C115(12) <= 0
 c26: - 1e+06 B17(22) + C116(22) <= 0
 c27: - 1e+06 B0(22) - 1e+06 B3(21) - 1e+06 B19(2) + C99(24) - C102(22)
   >= -2.9999e+06
 c28: - 1e+06 B0(22) - 1e+06 B3(21) + 1e+06 B19(2) - C99(24) + C102(22)
   >= -1.999702e+06
 c29: - 1e+06 B0(22) - 1e+06 B5(22) - 1e+06 B20(2) + C99(24) - C104(22)
   >= -2.999655e+06
 c30: - 1e+06 B0(22) - 1e+06 B5(22) + 1e+06 B20(2) - C99(24) + C104(22)
   >= -1.999848e+06
 c31: - 1e+06 B0(22) - 1e+06 B6(20) - 1e+06 B21(4) + C99(24) - C105(22)
   >= -2.999785e+06
 c32: - 1e+06 B0(22) - 1e+06 B6(20) + 1e+06 B21(4) - C99(24) + C105(22)
   >= -1.999775e+06
 c33: - 1e+06 B1(12) - 1e+06 B7(14) - 1e+06 B21(4) + C100(14) - C106(16)
   >= -2.999865e+06
 c34: - 1e+06 B1(12) - 1e+06 B7(14) + 1e+06 B21(4) - C100(14) + C106(16)
   >= -1.999853e+06
 c35: - 1e+06 B0(22) - 1e+06 B9(19) - 1e+06 B22(2) + C99(24) - C108(20)
   >= -2.999692e+06
 c36: - 1e+06 B0(22) - 1e+06 B9(19) + 1e+06 B22(2) - C99(24) + C108(20)
   >= -1.999598e+06
 c37: - 1e+06 B1(12) - 1e+06 B11(14) - 1e+06 B23(2) + C100(14) - C110(14)
   >= -2.999906e+06
 c38: - 1e+06 B1(12) - 1e+06 B11(14) + 1e+06 B23(2) - C100(14) + C110(14)
   >= -1.999766e+06
 c39: - 1e+06 B0(22) - 1e+06 B12(22) - 1e+06 B24(4) + C99(24) - C111(24)
   >= -2.99978e+06
 c40: - 1e+06 B0(22) - 1e+06 B12(22) + 1e+06 B24(4) - C99(24) + C111(24)
   >= -1.9997e+06
 c41: - 1e+06 B1(12) - 1e+06 B13(14) - 1e+06 B24(4) + C100(14) - C112(16)
   >= -2.99963e+06
 c42: - 1e+06 B1(12) - 1e+06 B13(14) + 1e+06 B24(4) - C100(14) + C112(16)
   >= -1.999853e+06
 c43: - 1e+06 B0(22) - 1e+06 B14(21) - 1e+06 B25(4) + C99(24) - C113(22)
   >= -2.999854e+06
 c44: - 1e+06 B0(22) - 1e+06 B14(21) + 1e+06 B25(4) - C99(24) + C113(22)
   >= -1.999562e+06
 c45: - 1e+06 B1(12) - 1e+06 B15(13) - 1e+06 B25(4) + C100(14) - C114(14)
   >= -2.999595e+06
 c46: - 1e+06 B1(12) - 1e+06 B15(13) + 1e+06 B25(4) - C100(14) + C114(14)
   >= -1.999845e+06
 c47: - 1e+06 B0(22) - 1e+06 B17(22) - 1e+06 B26(2) + C99(24) - C116(22)
   >= -2.999545e+06
 c48: - 1e+06 B0(22) - 1e+06 B17(22) + 1e+06 B26(2) - C99(24) + C116(22)
   >= -1.999834e+06
 c49: - 1e+06 B0(22) - 1e+06 B3(21) - 1e+06 B27(2) - C99(24) + C102(22)
   >= -2.999702e+06
 c50: - 1e+06 B0(22) - 1e+06 B3(21) + 1e+06 B27(2) + C99(24) - C102(22)
   >= -1.9999e+06
 c51: - 1e+06 B2(13) - 1e+06 B4(14) - 1e+06 B29(4) + C101(14) - C103(14)
   >= -2.999698e+06
 c52: - 1e+06 B2(13) - 1e+06 B4(14) + 1e+06 B29(4) - C101(14) + C103(14)
   >= -1.999699e+06
 c53: - 1e+06 B3(21) - 1e+06 B5(22) - 1e+06 B29(4) + C102(22) - C104(22)
   >= -2.999896e+06
 c54: - 1e+06 B3(21) - 1e+06 B5(22) + 1e+06 B29(4) - C102(22) + C104(22)
   >= -1.999874e+06
 c55: - 1e+06 B3(21) - 1e+06 B6(20) - 1e+06 B30(2) + C102(22) - C105(22)
   >= -2.999747e+06
 c56: - 1e+06 B3(21) - 1e+06 B6(20) + 1e+06 B30(2) - C102(22) + C105(22)
   >= -1.999535e+06
 c57: - 1e+06 B2(13) - 1e+06 B8(13) - 1e+06 B31(4) + C101(14) - C107(14)
   >= -2.999674e+06
 c58: - 1e+06 B2(13) - 1e+06 B8(13) + 1e+06 B31(4) - C101(14) + C107(14)
   >= -1.999848e+06
 c59: - 1e+06 B3(21) - 1e+06 B9(19) - 1e+06 B31(4) + C102(22) - C108(20)
   >= -2.999775e+06
 c60: - 1e+06 B3(21) - 1e+06 B9(19) + 1e+06 B31(4) - C102(22) + C108(20)
   >= -1.99964e+06
 c61: - 1e+06 B2(13) - 1e+06 B10(14) - 1e+06 B32(2) + C101(14) - C109(14)
   >= -2.999953e+06
 c62: - 1e+06 B2(13) - 1e+06 B10(14) + 1e+06 B32(2) - C101(14) + C109(14)
   >= -1.999852e+06
 c63: - 1e+06 B3(21) - 1e+06 B12(22) - 1e+06 B33(2) + C102(22) - C111(24)
   >= -2.999808e+06
 c64: - 1e+06 B3(21) - 1e+06 B12(22) + 1e+06 B33(2) - C102(22) + C111(24)
   >= -1.99987e+06
 c65: - 1e+06 B3(21) - 1e+06 B14(21) - 1e+06 B34(2) + C102(22) - C113(22)
   >= -2.999888e+06
 c66: - 1e+06 B3(21) - 1e+06 B14(21) + 1e+06 B34(2) - C102(22) + C113(22)
   >= -1.999884e+06
 c67: - 1e+06 B2(13) - 1e+06 B16(12) - 1e+06 B35(4) + C101(14) - C115(12)
   >= -2.999558e+06
 c68: - 1e+06 B2(13) - 1e+06 B16(12) + 1e+06 B35(4) - C101(14) + C115(12)
   >= -1.999711e+06
 c69: - 1e+06 B3(21) - 1e+06 B17(22) - 1e+06 B35(4) + C102(22) - C116(22)
   >= -2.999608e+06
 c70: - 1e+06 B3(21) - 1e+06 B17(22) + 1e+06 B35(4) - C102(22) + C116(22)
   >= -1.999882e+06
 c71: - 1e+06 B0(22) - 1e+06 B5(22) - 1e+06 B36(2) - C99(24) + C104(22)
   >= -2.999848e+06
 c72: - 1e+06 B0(22) - 1e+06 B5(22) + 1e+06 B36(2) + C99(24) - C104(22)
   >= -1.999655e+06
 c73: - 1e+06 B2(13) - 1e+06 B4(14) - 1e+06 B37(4) - C101(14) + C103(14)
   >= -2.999699e+06
 c74: - 1e+06 B2(13) - 1e+06 B4(14) + 1e+06 B37(4) + C101(14) - C103(14)
   >= -1.999698e+06
 c75: - 1e+06 B3(21) - 1e+06 B5(22) - 1e+06 B37(4) - C102(22) + C104(22)
   >= -2.999874e+06
 c76: - 1e+06 B3(21) - 1e+06 B5(22) + 1e+06 B37(4) + C102(22) - C104(22)
   >= -1.999896e+06
 c77: - 1e+06 B5(22) - 1e+06 B6(20) - 1e+06 B39(2) + C104(22) - C105(22)
   >= -2.999842e+06
 c78: - 1e+06 B5(22) - 1e+06 B6(20) + 1e+06 B39(2) - C104(22) + C105(22)
   >= -1.999857e+06
 c79: - 1e+06 B4(14) - 1e+06 B8(13) - 1e+06 B40(4) + C103(14) - C107(14)
   >= -2.99955e+06
 c80: - 1e+06 B4(14) - 1e+06 B8(13) + 1e+06 B40(4) - C103(14) + C107(14)
   >= -1.999948e+06
 c81: - 1e+06 B5(22) - 1e+06 B9(19) - 1e+06 B40(4) + C104(22) - C108(20)
   >= -2.999923e+06
 c82: - 1e+06 B5(22) - 1e+06 B9(19) + 1e+06 B40(4) - C104(22) + C108(20)
   >= -1.999931e+06
 c83: - 1e+06 B4(14) - 1e+06 B10(14) - 1e+06 B41(2) + C103(14) - C109(14)
   >= -2.999876e+06
 c84: - 1e+06 B4(14) - 1e+06 B10(14) + 1e+06 B41(2) - C103(14) + C109(14)
   >= -1.999513e+06
 c85: - 1e+06 B5(22) - 1e+06 B12(22) - 1e+06 B42(2) + C104(22) - C111(24)
   >= -2.999622e+06
 c86: - 1e+06 B5(22) - 1e+06 B12(22) + 1e+06 B42(2) - C104(22) + C111(24)
   >= -1.999815e+06
 c87: - 1e+06 B5(22) - 1e+06 B14(21) - 1e+06 B43(2) + C104(22) - C113(22)
   >= -2.999863e+06
 c88: - 1e+06 B5(22) - 1e+06 B14(21) + 1e+06 B43(2) - C104(22) + C113(22)
   >= -1.999881e+06
 c89: - 1e+06 B4(14) - 1e+06 B16(12) - 1e+06 B44(4) + C103(14) - C115(12)
   >= -2.99963e+06
 c90: - 1e+06 B4(14) - 1e+06 B16(12) + 1e+06 B44(4) - C103(14) + C115(12)
   >= -1.999919e+06
 c91: - 1e+06 B5(22) - 1e+06 B17(22) - 1e+06 B44(4) + C104(22) - C116(22)
   >= -2.999768e+06
 c92: - 1e+06 B5(22) - 1e+06 B17(22) + 1e+06 B44(4) - C104(22) + C116(22)
   >= -1.999803e+06
 c93: - 1e+06 B6(20) - 1e+06 B9(19) - 1e+06 B49(2) + C105(22) - C108(20)
   >= -2.99985e+06
 c94: - 1e+06 B6(20) - 1e+06 B9(19) + 1e+06 B49(2) - C105(22) + C108(20)
   >= -1.999893e+06
 c95: - 1e+06 B7(14) - 1e+06 B11(14) - 1e+06 B50(2) + C106(16) - C110(14)
   >= -2.999931e+06
 c96: - 1e+06 B7(14) - 1e+06 B11(14) + 1e+06 B50(2) - C106(16) + C110(14)
   >= -1.999784e+06
 c97: - 1e+06 B6(20) - 1e+06 B12(22) - 1e+06 B51(4) + C105(22) - C111(24)
   >= -2.999728e+06
 c98: - 1e+06 B6(20) - 1e+06 B12(22) + 1e+06 B51(4) - C105(22) + C111(24)
   >= -1.999574e+06
 c99: - 1e+06 B7(14) - 1e+06 B13(14) - 1e+06 B51(4) + C106(16) - C112(16)
   >= -2.999711e+06
 c100: - 1e+06 B7(14) - 1e+06 B13(14) + 1e+06 B51(4) - C106(16) + C112(16)
   >= -1.99966e+06
 c101: - 1e+06 B6(20) - 1e+06 B14(21) - 1e+06 B52(4) + C105(22) - C113(22)
   >= -2.999566e+06
 c102: - 1e+06 B6(20) - 1e+06 B14(21) + 1e+06 B52(4) - C105(22) + C113(22)
   >= -1.999822e+06
 c103: - 1e+06 B7(14) - 1e+06 B15(13) - 1e+06 B52(4) + C106(16) - C114(14)
   >= -2.999778e+06
 c104: - 1e+06 B7(14) - 1e+06 B15(13) + 1e+06 B52(4) - C106(16) + C114(14)
   >= -1.99985e+06
 c105: - 1e+06 B6(20) - 1e+06 B17(22) - 1e+06 B53(2) + C105(22) - C116(22)
   >= -2.999766e+06
 c106: - 1e+06 B6(20) - 1e+06 B17(22) + 1e+06 B53(2) - C105(22) + C116(22)
   >= -1.999864e+06
 c107: - 1e+06 B6(20) - 1e+06 B9(19) - 1e+06 B57(2) - C105(22) + C108(20)
   >= -2.999893e+06
 c108: - 1e+06 B6(20) - 1e+06 B9(19) + 1e+06 B57(2) + C105(22) - C108(20)
   >= -1.99985e+06
 c109: - 1e+06 B8(13) - 1e+06 B10(14) - 1e+06 B59(2) + C107(14) - C109(14)
   >= -2.999748e+06
 c110: - 1e+06 B8(13) - 1e+06 B10(14) + 1e+06 B59(2) - C107(14) + C109(14)
   >= -1.999912e+06
 c111: - 1e+06 B9(19) - 1e+06 B12(22) - 1e+06 B60(2) + C108(20) - C111(24)
   >= -2.999802e+06
 c112: - 1e+06 B9(19) - 1e+06 B12(22) + 1e+06 B60(2) - C108(20) + C111(24)
   >= -1.999588e+06
 c113: - 1e+06 B9(19) - 1e+06 B14(21) - 1e+06 B61(2) + C108(20) - C113(22)
   >= -2.99983e+06
 c114: - 1e+06 B9(19) - 1e+06 B14(21) + 1e+06 B61(2) - C108(20) + C113(22)
   >= -1.999772e+06
 c115: - 1e+06 B8(13) - 1e+06 B16(12) - 1e+06 B62(4) + C107(14) - C115(12)
   >= -2.999852e+06
 c116: - 1e+06 B8(13) - 1e+06 B16(12) + 1e+06 B62(4) - C107(14) + C115(12)
   >= -1.999786e+06
 c117: - 1e+06 B9(19) - 1e+06 B17(22) - 1e+06 B62(4) + C108(20) - C116(22)
   >= -2.99976e+06
 c118: - 1e+06 B9(19) - 1e+06 B17(22) + 1e+06 B62(4) - C108(20) + C116(22)
   >= -1.99945e+06
 c119: - 1e+06 B7(14) - 1e+06 B11(14) - 1e+06 B66(2) - C106(16) + C110(14)
   >= -2.999784e+06
 c120: - 1e+06 B7(14) - 1e+06 B11(14) + 1e+06 B66(2) + C106(16) - C110(14)
   >= -1.999931e+06
 c121: - 1e+06 B8(13) - 1e+06 B10(14) - 1e+06 B67(2) - C107(14) + C109(14)
   >= -2.999912e+06
 c122: - 1e+06 B8(13) - 1e+06 B10(14) + 1e+06 B67(2) + C107(14) - C109(14)
   >= -1.999748e+06
 c123: - 1e+06 B11(14) - 1e+06 B13(14) - 1e+06 B69(2) + C110(14) - C112(16)
   >= -2.99977e+06
 c124: - 1e+06 B11(14) - 1e+06 B13(14) + 1e+06 B69(2) - C110(14) + C112(16)
   >= -1.999686e+06
 c125: - 1e+06 B11(14) - 1e+06 B15(13) - 1e+06 B70(2) + C110(14) - C114(14)
   >= -2.9999e+06
 c126: - 1e+06 B11(14) - 1e+06 B15(13) + 1e+06 B70(2) - C110(14) + C114(14)
   >= -1.99945e+06
 c127: - 1e+06 B10(14) - 1e+06 B16(12) - 1e+06 B71(2) + C109(14) - C115(12)
   >= -2.999719e+06
 c128: - 1e+06 B10(14) - 1e+06 B16(12) + 1e+06 B71(2) - C109(14) + C115(12)
   >= -1.999574e+06
 c129: - 1e+06 B12(22) - 1e+06 B14(21) - 1e+06 B79(4) + C111(24) - C113(22)
   >= -2.999866e+06
 c130: - 1e+06 B12(22) - 1e+06 B14(21) + 1e+06 B79(4) - C111(24) + C113(22)
   >= -1.999602e+06
 c131: - 1e+06 B13(14) - 1e+06 B15(13) - 1e+06 B79(4) + C112(16) - C114(14)
   >= -2.999652e+06
 c132: - 1e+06 B13(14) - 1e+06 B15(13) + 1e+06 B79(4) - C112(16) + C114(14)
   >= -1.99972e+06
 c133: - 1e+06 B12(22) - 1e+06 B17(22) - 1e+06 B80(2) + C111(24) - C116(22)
   >= -2.999896e+06
 c134: - 1e+06 B12(22) - 1e+06 B17(22) + 1e+06 B80(2) - C111(24) + C116(22)
   >= -1.99983e+06
 c135: - 1e+06 B12(22) - 1e+06 B14(21) - 1e+06 B87(4) - C111(24) + C113(22)
   >= -2.999602e+06
 c136: - 1e+06 B12(22) - 1e+06 B14(21) + 1e+06 B87(4) + C111(24) - C113(22)
   >= -1.999866e+06
 c137: - 1e+06 B13(14) - 1e+06 B15(13) - 1e+06 B87(4) - C112(16) + C114(14)
   >= -2.99972e+06
 c138: - 1e+06 B13(14) - 1e+06 B15(13) + 1e+06 B87(4) + C112(16) - C114(14)
   >= -1.999652e+06
 c139: - 1e+06 B14(21) - 1e+06 B17(22) - 1e+06 B89(2) + C113(22) - C116(22)
   >= -2.999868e+06
 c140: - 1e+06 B14(21) - 1e+06 B17(22) + 1e+06 B89(2) - C113(22) + C116(22)
   >= -1.99967e+06
 c141: - 1e+06 B12(22) - 1e+06 B17(22) - 1e+06 B96(2) - C111(24) + C116(22)
   >= -2.99983e+06
 c142: - 1e+06 B12(22) - 1e+06 B17(22) + 1e+06 B96(2) + C111(24) - C116(22)
   >= -1.999896e+06
 c143: - 1e+06 B14(21) - 1e+06 B17(22) - 1e+06 B97(2) - C113(22) + C116(22)
   >= -2.99967e+06
 c144: - 1e+06 B14(21) - 1e+06 B17(22) + 1e+06 B97(2) + C113(22) - C116(22)
   >= -1.999868e+06
 c145: C99(24) >= 0
 c146: C100(14) >= 0
 c147: C101(14) >= 0
 c148: C102(22) >= 0
 c149: C103(14) >= 0
 c150: - 480 B4(14) + C103(14) >= 0
 c151: C104(22) >= 0
 c152: - 480 B5(22) + C104(22) >= 0
 c153: C105(22) >= 0
 c154: C106(16) >= 0
 c155: C107(14) >= 0
 c156: C108(20) >= 0
 c157: C109(14) >= 0
 c158: - 480 B10(14) + C109(14) >= 0
 c159: C110(14) >= 0
 c160: - 480 B11(14) + C110(14) >= 0
 c161: C111(24) >= 0
 c162: C112(16) >= 0
 c163: C113(22) >= 0
 c164: C114(14) >= 0
 c165: C115(12) >= 0
 c166: - 480 B16(12) + C115(12) >= 0
 c167: C116(22) >= 0
 c168: - 480 B17(22) + C116(22) >= 0
 c169: - 40 B2(13) - 30 B3(21) + C99(24) + C100(14) - C101(14) - C102(22)
   >= 0
 c170: - 17 B4(14) - 25 B5(22) + C101(14) + C102(22) - C103(14) - C104(22)
   >= 0
 c171: - 50 B8(13) - 60 B9(19) + C105(22) + C106(16) - C107(14) - C108(20)
   >= 0
 c172: - 30 B10(14) - 50 B11(14) + C107(14) + C108(20) - C109(14)
   - C110(14) >= 0
 c173: - 70 B14(21) - 80 B15(13) + C111(24) + C112(16) - C113(22)
   - C114(14) >= 0
 c174: - 50 B16(12) - 60 B17(22) + C113(22) + C114(14) - C115(12)
   - C116(22) >= 0
 c175: 50 B0(22) + C99(24) - 1e+06 B118(4) >= -999520
 c176: 50 B0(22) + C99(24) - 1e+06 B118(4) <= 480
 c177: 60 B1(12) + C100(14) - 1e+06 B119(4) >= -999520
 c178: 60 B1(12) + C100(14) - 1e+06 B119(4) <= 480
 c179: 70 B6(20) + C105(22) - 1e+06 B120(4) >= -999520
 c180: 70 B6(20) + C105(22) - 1e+06 B120(4) <= 480
 c181: 60 B7(14) + C106(16) - 1e+06 B121(4) >= -999520
 c182: 60 B7(14) + C106(16) - 1e+06 B121(4) <= 480
 c183: 90 B12(22) + C111(24) - 1e+06 B122(4) >= -999520
 c184: 90 B12(22) + C111(24) - 1e+06 B122(4) <= 480
 c185: 100 B13(14) + C112(16) - 1e+06 B123(4) >= -999520
 c186: 100 B13(14) + C112(16) - 1e+06 B123(4) <= 480
 qc0: I117(1) + 430 B118(4) + 420 B119(4) + 410 B120(4) + 420 B121(4)
   + 390 B122(4) + 380 B123(4) + [ - C99(24) * B118(4) - C100(14) * B119(4)
   - C105(22) * B120(4) - C106(16) * B121(4) - C111(24) * B122(4)
   - C112(16) * B123(4) ] >= 0
Bounds
Binaries
 B0(22) B1(12) B2(13) B3(21) B4(14) B5(22) B6(20) B7(14) B8(13) B9(19)
 B10(14) B11(14) B12(22) B13(14) B14(21) B15(13) B16(12) B17(22) B18(0)
 B19(2) B20(2) B21(4) B22(2) B23(2) B24(4) B25(4) B26(2) B27(2) B28(0)
 B29(4) B30(2) B31(4) B32(2) B33(2) B34(2) B35(4) B36(2) B37(4) B38(0)
 B39(2) B40(4) B41(2) B42(2) B43(2) B44(4) B45(0) B46(0) B47(0) B48(0)
 B49(2) B50(2) B51(4) B52(4) B53(2) B54(0) B55(0) B56(0) B57(2) B58(0)
 B59(2) B60(2) B61(2) B62(4) B63(0) B64(0) B65(0) B66(2) B67(2) B68(0)
 B69(2) B70(2) B71(2) B72(0) B73(0) B74(0) B75(0) B76(0) B77(0) B78(0)
 B79(4) B80(2) B81(0) B82(0) B83(0) B84(0) B85(0) B86(0) B87(4) B88(0)
 B89(2) B90(0) B91(0) B92(0) B93(0) B94(0) B95(0) B96(2) B97(2) B98(0)
 B118(4) B119(4) B120(4) B121(4) B122(4) B123(4)
Generals
 I117(1)
End
